30
1 0 23
2 0 3
2 1 19
3 0 2
3 1 19
3 2 16
4 0 9
4 1 40
4 2 21
4 3 38
5 0 26
5 1 14
5 2 32
5 3 35
5 4 15
6 0 11
6 1 38
6 2 31
6 3 37
6 4 27
6 5 30
7 0 16
7 1 30
7 2 25
7 3 26
7 4 40
7 5 30
7 6 36
8 0 34
8 1 16
8 2 32
8 3 34
8 4 18
8 5 12
8 6 16
8 7 9
9 0 24
9 1 15
9 2 38
9 3 18
9 4 29
9 5 12
9 6 10
9 7 34
9 8 39
10 0 20
10 1 23
10 2 27
10 3 2
10 4 24
10 5 37
10 6 2
10 7 26
10 8 26
10 9 32
11 0 31
11 1 4
11 2 22
11 3 14
11 4 3
11 5 11
11 6 19
11 7 24
11 8 30
11 9 25
11 10 6
12 0 21
12 1 29
12 2 34
12 3 1
12 4 28
12 5 21
12 6 34
12 7 40
12 8 9
12 9 9
12 10 27
12 11 13
13 0 34
13 1 16
13 2 33
13 3 13
13 4 19
13 5 13
13 6 33
13 7 24
13 8 36
13 9 36
13 10 12
13 11 28
13 12 35
14 0 16
14 1 37
14 2 11
14 3 10
14 4 11
14 5 19
14 6 12
14 7 29
14 8 30
14 9 21
14 10 33
14 11 7
14 12 37
14 13 7
15 0 27
15 1 5
15 2 8
15 3 34
15 4 15
15 5 12
15 6 31
15 7 5
15 8 37
15 9 24
15 10 17
15 11 1
15 12 35
15 13 2
15 14 20
16 0 21
16 1 26
16 2 40
16 3 1
16 4 33
16 5 18
16 6 19
16 7 24
16 8 30
16 9 2
16 10 31
16 11 5
16 12 27
16 13 3
16 14 33
16 15 23
17 0 13
17 1 38
17 2 16
17 3 25
17 4 20
17 5 14
17 6 15
17 7 25
17 8 37
17 9 38
17 10 17
17 11 9
17 12 18
17 13 33
17 14 12
17 15 27
17 16 40
18 0 22
18 1 27
18 2 33
18 3 31
18 4 12
18 5 26
18 6 37
18 7 1
18 8 8
18 9 30
18 10 40
18 11 20
18 12 25
18 13 14
18 14 23
18 15 20
18 16 20
18 17 38
19 0 24
19 1 2
19 2 24
19 3 18
19 4 7
19 5 31
19 6 18
19 7 23
19 8 17
19 9 2
19 10 14
19 11 4
19 12 9
19 13 12
19 14 21
19 15 13
19 16 11
19 17 29
19 18 25
20 0 5
20 1 9
20 2 2
20 3 37
20 4 16
20 5 35
20 6 23
20 7 35
20 8 3
20 9 2
20 10 40
20 11 35
20 12 20
20 13 7
20 14 34
20 15 38
20 16 1
20 17 36
20 18 40
20 19 31
21 0 22
21 1 20
21 2 1
21 3 32
21 4 31
21 5 15
21 6 32
21 7 21
21 8 20
21 9 11
21 10 8
21 11 30
21 12 28
21 13 7
21 14 8
21 15 33
21 16 25
21 17 18
21 18 21
21 19 25
21 20 14
22 0 5
22 1 22
22 2 17
22 3 36
22 4 15
22 5 19
22 6 25
22 7 11
22 8 19
22 9 13
22 10 24
22 11 7
22 12 25
22 13 7
22 14 38
22 15 31
22 16 32
22 17 38
22 18 10
22 19 3
22 20 8
22 21 28
23 0 13
23 1 1
23 2 7
23 3 34
23 4 23
23 5 31
23 6 22
23 7 9
23 8 3
23 9 38
23 10 28
23 11 32
23 12 8
23 13 29
23 14 4
23 15 6
23 16 6
23 17 16
23 18 25
23 19 8
23 20 29
23 21 1
23 22 21
24 0 13
24 1 33
24 2 12
24 3 18
24 4 34
24 5 4
24 6 31
24 7 27
24 8 3
24 9 10
24 10 40
24 11 3
24 12 35
24 13 5
24 14 7
24 15 2
24 16 10
24 17 25
24 18 21
24 19 23
24 20 25
24 21 34
24 22 18
24 23 39
25 0 8
25 1 13
25 2 4
25 3 4
25 4 6
25 5 4
25 6 29
25 7 18
25 8 28
25 9 28
25 10 23
25 11 23
25 12 24
25 13 38
25 14 22
25 15 23
25 16 39
25 17 25
25 18 6
25 19 9
25 20 34
25 21 15
25 22 17
25 23 30
25 24 16
26 0 33
26 1 38
26 2 5
26 3 24
26 4 21
26 5 3
26 6 12
26 7 17
26 8 2
26 9 34
26 10 24
26 11 12
26 12 24
26 13 19
26 14 39
26 15 17
26 16 37
26 17 9
26 18 20
26 19 23
26 20 10
26 21 39
26 22 35
26 23 7
26 24 26
26 25 3
27 0 12
27 1 28
27 2 7
27 3 37
27 4 13
27 5 36
27 6 13
27 7 31
27 8 14
27 9 16
27 10 34
27 11 14
27 12 40
27 13 22
27 14 10
27 15 16
27 16 22
27 17 26
27 18 3
27 19 16
27 20 1
27 21 31
27 22 35
27 23 31
27 24 23
27 25 2
27 26 28
28 0 27
28 1 23
28 2 6
28 3 19
28 4 31
28 5 13
28 6 38
28 7 11
28 8 5
28 9 6
28 10 39
28 11 27
28 12 23
28 13 28
28 14 6
28 15 28
28 16 14
28 17 15
28 18 22
28 19 33
28 20 9
28 21 7
28 22 24
28 23 5
28 24 40
28 25 29
28 26 30
28 27 32
29 0 2
29 1 6
29 2 18
29 3 16
29 4 26
29 5 25
29 6 12
29 7 6
29 8 8
29 9 15
29 10 7
29 11 5
29 12 4
29 13 11
29 14 9
29 15 15
29 16 18
29 17 4
29 18 37
29 19 11
29 20 29
29 21 8
29 22 4
29 23 18
29 24 33
29 25 9
29 26 11
29 27 1
29 28 18
